outputs/case_244.model.txt
has_certain_scale = True
is_publicly_listed = False
has_fixed_office = True
is_property_insurance_solicitation = True
solicitation_handling_7th_clause_applicable = False
has_dedicated_account_book = True
number_of_licenses_held = 1
internal_control_executed = True
internal_control_performed = True
violation_internal_control = False
penalty = False
audit_system_performed = True
internal_control_established = True
single_license = True
internal_control_required = True
solicitation_handling_system_established = True
fixed_office_and_account_book = True
audit_system_established = True
solicitation_handling_system_performed = True